n = 15
m = 20
c = 8

problem 1
---------
0 0 0 0 0 1 1 0 1 1 0 0 0 0 0
0 0 0 1 0 1 0 0 0 0 0 0 0 0 1
0 0 1 1 1 0 0 0 1 0 0 0 0 0 0
0 0 0 0 0 1 1 0 0 0 0 0 0 0 0
0 1 0 0 0 0 0 1 0 0 0 0 0 0 0
0 0 1 0 0 0 1 0 0 0 0 0 1 0 1
0 0 0 0 1 0 1 1 1 0 1 0 0 0 0
1 0 0 1 0 0 0 0 1 0 0 0 0 1 0
1 1 0 0 1 0 0 0 0 0 0 0 0 0 1
0 0 0 0 0 1 1 0 0 1 0 1 0 0 0
0 0 0 0 0 0 0 0 0 0 0 1 0 0 0
0 1 1 0 0 0 0 0 0 0 0 0 0 0 1
1 0 0 0 0 0 0 0 0 1 1 0 1 0 0
1 1 0 0 0 0 0 1 0 0 0 0 1 0 0
1 0 1 0 0 0 0 0 0 0 0 0 0 1 0
0 0 0 0 0 0 0 0 0 0 1 1 0 0 0
0 0 1 1 1 0 0 0 0 0 1 0 0 0 1
0 0 0 0 0 1 0 0 0 0 0 0 0 0 0
0 0 1 1 0 0 0 0 1 0 0 0 0 1 0
0 1 0 0 1 0 0 0 0 0 0 0 0 0 0

problem 2
---------
0 0 0 0 0 1 1 0 0 0 1 0 0 0 0
0 1 0 0 0 0 0 0 0 0 0 1 0 0 0
1 0 0 0 0 0 0 0 0 0 0 1 0 0 0
0 0 0 0 1 0 0 0 0 0 0 0 0 0 1
0 0 0 0 0 0 1 0 0 0 0 0 1 0 1
0 0 0 0 0 0 0 0 0 1 1 0 1 0 0
0 0 0 0 1 0 0 0 0 1 0 0 0 0 1
0 0 0 0 0 0 0 0 0 0 1 0 0 0 0
0 0 0 0 0 0 0 1 1 1 0 0 0 1 0
0 1 1 0 0 0 0 0 1 0 0 0 0 0 0
0 0 0 0 0 0 0 0 0 0 1 0 0 0 0
0 0 0 0 0 0 1 0 0 0 1 0 0 0 1
1 0 0 1 1 1 0 0 0 0 0 0 0 1 0
1 0 0 0 0 0 0 0 1 0 0 0 0 0 0
1 0 0 1 0 0 0 1 0 0 0 0 0 0 0
0 0 0 0 0 1 0 0 1 1 0 0 0 0 0
0 0 0 1 0 0 1 0 0 1 0 0 0 1 0
0 0 0 0 0 0 1 0 1 1 0 0 0 0 0
0 0 1 0 0 0 0 0 0 0 0 1 0 0 0
0 1 0 0 0 1 0 0 1 0 0 0 1 0 0

problem 3
---------
0 0 0 1 0 0 1 0 0 0 1 0 0 1 0
0 1 0 0 0 1 0 0 0 1 0 0 0 0 0
1 0 0 0 0 0 0 1 0 0 0 0 0 0 0
1 0 0 0 0 0 0 0 0 0 0 1 0 0 0
0 0 0 0 0 0 0 1 1 0 0 0 0 0 0
0 1 0 1 0 0 0 0 0 0 1 0 0 0 0
0 1 0 1 1 0 0 0 1 1 0 0 0 1 0
0 0 0 0 0 0 1 0 0 0 0 1 0 0 0
0 0 0 1 1 0 0 1 1 0 0 1 1 0 0
0 0 0 1 0 0 1 0 1 0 0 0 1 1 1
0 0 0 1 0 0 0 0 0 0 0 0 0 0 0
0 1 0 0 1 0 0 0 0 0 0 0 0 0 0
0 0 1 0 0 0 0 0 0 0 0 1 1 0 0
0 0 0 0 1 0 0 0 1 0 0 0 0 0 0
0 0 1 0 0 0 1 0 1 0 0 0 0 1 1
0 0 0 0 1 1 0 1 0 0 0 0 0 0 0
0 1 0 0 0 1 0 0 0 0 1 0 0 1 1
0 0 0 0 1 0 0 0 0 1 1 0 0 0 0
0 0 1 0 0 1 0 0 0 0 1 0 0 0 0
0 1 0 0 0 0 0 0 0 1 0 0 0 0 1

problem 4
---------
0 0 0 1 0 0 1 0 0 0 1 0 0 1 0
0 1 0 0 0 1 0 0 0 1 0 0 0 0 0
1 0 0 0 0 0 0 1 0 0 0 0 0 0 0
1 0 0 0 0 0 0 0 0 0 0 1 0 0 0
0 0 0 0 0 0 0 1 1 0 0 0 0 0 0
0 1 0 1 0 0 0 0 0 0 1 0 0 0 0
0 1 0 1 1 0 0 0 1 1 0 0 0 1 0
0 0 0 0 0 0 1 0 0 0 0 1 0 0 0
0 0 0 1 1 0 0 1 1 0 0 1 1 0 0
0 0 0 1 0 0 1 0 1 0 0 0 1 1 1
0 0 0 1 0 0 0 0 0 0 0 0 0 0 0
0 1 0 0 1 0 0 0 0 0 0 0 0 0 0
0 0 1 0 0 0 0 0 0 0 0 1 1 0 0
0 0 0 0 1 0 0 0 1 0 0 0 0 0 0
0 0 1 0 0 0 1 0 1 0 0 0 0 1 1
0 0 0 0 1 1 0 1 0 0 0 0 0 0 0
0 1 0 0 0 1 0 0 0 0 1 0 0 1 1
0 0 0 0 1 0 0 0 0 1 1 0 0 0 0
0 0 1 0 0 1 0 0 0 0 1 0 0 0 0
0 1 0 0 0 0 0 0 0 1 0 0 0 0 1

problem 5
---------
0 0 0 0 1 1 0 0 0 0 0 1 0 0 0
1 0 0 0 0 1 0 0 0 0 0 0 0 0 0
0 0 1 0 1 0 0 0 0 0 0 0 0 0 0
1 0 0 1 0 0 1 0 0 0 0 0 0 0 0
0 1 0 0 0 0 1 0 1 0 0 0 0 0 0
0 0 0 0 0 0 0 0 0 0 1 0 0 0 0
0 0 0 0 0 0 0 1 0 0 1 0 0 1 0
0 0 1 1 0 1 0 0 0 1 0 0 0 0 0
1 0 0 0 0 0 0 1 0 0 0 1 0 0 0
0 0 0 1 0 1 0 0 0 1 0 0 1 0 1
0 0 0 0 0 0 0 0 1 0 0 0 1 0 1
0 0 0 1 0 1 0 1 0 0 0 0 0 0 0
0 1 1 0 0 0 0 1 0 0 0 0 1 0 1
0 1 0 0 0 0 1 0 1 1 0 0 1 0 0
1 0 0 1 0 0 0 1 0 0 0 0 1 0 0
0 0 0 0 0 0 1 0 0 0 1 0 0 1 1
0 0 0 0 0 1 0 1 0 1 0 0 0 0 0
0 0 0 0 0 0 0 0 0 0 1 0 0 0 0
1 0 0 0 0 0 0 0 0 1 0 0 0 1 0
0 0 0 0 0 0 1 0 0 0 0 0 0 0 0

problem 6
---------
0 0 0 0 1 0 0 1 0 0 0 0 0 0 0
0 1 0 0 1 0 0 0 0 0 0 0 0 1 0
1 1 0 0 1 1 1 0 1 0 0 1 0 0 0
0 0 0 0 1 0 0 1 1 1 0 0 0 0 0
0 1 0 0 0 1 0 0 0 0 0 0 1 0 1
0 0 0 1 0 0 0 1 1 0 0 1 1 1 1
1 1 0 0 0 1 1 0 1 0 0 0 0 0 0
1 0 0 0 1 0 0 0 0 1 0 0 0 0 1
0 0 0 0 0 0 0 1 0 0 0 0 0 0 0
0 0 0 0 0 0 1 0 0 0 1 0 0 0 0
0 0 0 1 0 0 0 1 1 1 1 0 1 0 0
0 1 0 0 1 0 1 0 0 0 0 0 0 0 0
0 0 1 0 0 0 0 0 0 0 0 1 0 0 0
0 0 1 1 0 0 0 0 0 1 0 0 0 0 1
0 0 1 1 0 0 1 0 0 0 0 0 0 0 0
1 1 0 0 0 0 1 0 1 0 0 0 0 0 0
0 0 0 0 0 1 0 0 0 0 0 0 0 0 0
1 0 0 1 0 0 0 0 0 0 0 0 0 0 0
0 0 0 0 0 0 0 0 0 1 1 0 0 0 0
0 0 0 0 0 0 0 1 0 1 0 0 0 0 1

problem 7
---------
0 0 0 0 0 1 0 0 0 0 0 0 0 0 0
0 0 0 0 0 0 0 0 1 0 0 0 0 0 0
0 0 0 1 0 1 0 1 0 0 0 0 0 0 0
1 0 0 0 0 0 0 1 0 0 0 0 1 0 0
0 0 0 1 0 0 0 1 1 0 0 0 1 0 1
0 0 0 0 0 0 0 0 0 0 0 0 0 1 0
0 0 0 1 0 1 0 0 0 0 0 0 0 0 0
1 0 0 0 0 1 1 1 0 1 0 1 0 0 0
0 0 0 0 0 0 0 0 0 0 0 0 0 0 0
0 0 0 1 0 0 0 0 0 0 0 1 0 1 0
1 0 0 0 0 0 0 0 0 0 0 0 1 0 0
0 0 0 0 1 0 0 1 0 1 0 0 0 0 0
0 0 1 0 0 0 0 0 0 1 0 0 0 0 0
0 1 0 0 0 0 0 0 1 1 1 1 0 1 0
0 1 1 0 0 0 1 0 0 0 0 0 1 0 1
0 0 0 0 0 0 1 0 1 0 0 0 1 0 0
0 0 0 0 0 0 0 0 1 1 0 0 1 0 0
0 0 0 0 0 1 0 1 0 0 1 0 0 0 0
0 0 0 0 1 0 1 0 1 0 1 0 0 1 0
0 0 0 1 0 0 0 0 0 0 0 1 0 0 1

problem 8
---------
0 1 0 0 0 0 1 0 0 0 0 0 0 0 0
1 0 1 0 0 1 0 0 0 0 0 0 0 0 0
0 1 1 1 1 0 1 0 1 0 0 1 0 1 0
0 1 0 1 0 0 1 0 0 0 0 0 0 0 0
1 0 0 0 0 0 0 0 0 0 0 1 1 0 0
0 0 0 0 0 0 0 0 1 1 0 0 0 0 0
0 0 0 0 0 0 0 1 0 1 0 0 0 0 0
0 0 0 0 0 0 0 0 0 0 1 0 1 0 0
1 0 0 0 0 1 0 1 0 1 0 0 0 0 0
1 1 1 0 1 0 0 1 0 0 0 0 0 0 1
0 1 0 0 1 1 0 0 1 1 0 0 0 0 0
0 0 0 0 0 0 1 0 1 0 0 0 0 0 0
0 0 0 0 0 0 0 1 0 0 0 0 1 0 0
0 0 0 0 1 1 1 0 0 0 1 0 0 0 0
0 0 0 0 0 0 0 0 0 1 0 0 1 1 0
0 0 0 0 0 0 0 0 0 0 0 1 0 1 1
0 0 1 0 0 0 0 0 0 0 0 1 1 0 0
0 0 1 1 0 1 0 1 0 0 1 1 0 0 0
0 1 0 0 1 0 0 0 0 0 0 0 0 1 0
1 0 0 0 0 0 0 1 1 1 0 0 0 0 0

problem 9
---------
0 0 1 0 0 1 0 0 0 0 0 0 1 0 0
0 0 0 0 0 0 0 1 0 0 1 0 1 0 1
0 0 1 0 0 0 0 0 0 1 0 0 0 0 0
0 0 0 0 0 0 0 0 0 0 0 0 0 0 0
0 1 0 0 0 0 0 0 0 0 0 0 0 1 1
0 0 0 0 0 0 0 0 0 0 0 0 0 0 0
0 0 0 0 1 0 0 0 0 1 0 0 0 0 0
0 0 0 1 1 0 0 1 0 1 0 0 1 1 0
1 0 0 0 0 0 1 0 0 0 0 0 0 0 0
0 0 0 0 0 0 0 0 1 0 1 0 0 1 0
0 0 0 0 0 0 0 0 1 1 0 0 0 1 0
1 1 0 0 1 0 0 0 0 0 0 0 1 0 0
0 0 0 0 0 1 0 1 0 0 0 1 0 0 0
0 0 0 0 0 0 0 0 0 0 0 0 0 0 0
0 0 0 1 0 0 0 0 0 0 0 0 0 0 0
0 0 0 0 0 0 0 0 0 0 1 0 0 1 0
0 1 1 0 0 1 1 0 1 0 0 0 0 0 0
1 1 1 0 1 0 0 1 0 0 0 0 1 0 0
1 1 0 0 0 0 0 0 1 0 0 1 0 1 0
0 1 0 0 0 0 0 0 1 0 1 0 0 0 0

problem 10
---------
1 0 1 0 0 0 0 0 0 0 0 0 0 1 0
1 0 0 1 0 0 0 0 0 1 0 0 0 0 0
0 0 0 0 0 1 0 0 0 0 0 0 0 0 0
0 0 0 0 0 0 1 1 0 0 0 0 0 0 0
0 0 0 0 1 0 1 0 0 0 0 0 0 0 0
0 0 1 1 0 1 0 0 0 0 0 0 0 0 0
1 0 0 0 0 0 0 1 0 0 0 0 1 0 0
0 0 0 0 1 0 0 0 1 0 0 0 0 1 0
0 0 0 0 0 0 1 0 1 0 0 1 0 0 1
1 0 0 1 0 0 0 0 0 0 1 0 0 0 0
0 0 0 1 0 0 0 0 1 0 0 1 0 0 0
0 0 1 0 0 0 0 0 0 1 0 0 0 0 0
1 0 0 0 0 0 0 0 1 0 0 0 0 0 1
0 0 0 0 0 0 1 0 0 0 0 0 0 1 0
0 1 0 0 0 0 0 0 0 0 0 0 0 0 0
0 0 0 0 1 0 0 1 1 0 0 0 0 0 0
0 1 0 0 0 0 0 0 0 0 0 0 0 0 0
0 0 0 0 0 0 0 0 1 0 1 1 0 1 0
0 1 0 1 0 1 1 0 0 0 0 1 1 0 1
0 0 0 1 0 0 0 0 0 0 1 0 0 0 0
